# Objective value = 3.6572100000000737e+03
I_0_0 1932
I_0_1 2.4679999999999554e+03
I_0_2 2.1400000000000191e+03
I_0_3 2.9300000000001096e+03
I_1_0 55
I_1_1 0
I_1_2 5.5000000000004931e+01
I_1_3 0
I_2_0 126
I_2_1 126
I_2_2 6.2999999999988326e+01
I_2_3 -1.2300560570110974e-10
I_3_0 83
I_3_1 0
I_3_2 83
I_3_3 0
I_4_0 95
I_4_1 0
I_4_2 95
I_4_3 0
I_5_0 104
I_5_1 5.2000000000031946e+01
I_5_2 1.0400000000003195e+02
I_5_3 5.1999999999983878e+01
I_6_0 22
I_6_1 2.2000000000006796e+01
I_6_2 1.0999999999986454e+01
I_6_3 6.75448585951699e-12
I_7_0 142
I_7_1 1.4200000000000003e+02
I_7_2 7.0999999999999986e+01
I_7_3 -7.1054273576010019e-15
I_8_0 116
I_8_1 58
I_8_2 1.1599999999997824e+02
I_8_3 58
I_9_0 68
I_9_1 34
I_9_2 68
I_9_3 34
I_10_0 126
I_10_1 126
I_10_2 6.3000000000007283e+01
I_10_3 7.2972738962562289e-12
I_11_0 36
I_11_1 1.5200340985899174e-13
I_11_2 3.5999999999999851e+01
I_11_3 1.5420997812043424e-13
I_12_0 83
I_12_1 3.4699673689964072e-13
I_12_2 8.2999999999999645e+01
I_12_3 3.5638159090467525e-13
I_13_0 10
I_13_1 6.1737420731233783e-12
I_13_2 9.9999999999938236e+00
I_13_3 6.1737281953355705e-12
I_14_0 30
I_14_1 0
I_14_2 2.9999999999990816e+01
I_14_3 9.1877616625879455e-12
I_15_0 46
I_15_1 46
I_15_2 4.5999999999999993e+01
I_15_3 2.6645352591003757e-15
q_1_0_0 0
q_1_0_1 0
q_1_0_2 -4.9287429146210619e-12
q_1_1_0 0
q_1_1_1 1.1000000000000495e+02
q_1_1_2 0
q_1_2_0 0
q_1_2_1 0
q_1_2_2 0
q_1_3_0 0
q_1_3_1 0
q_1_3_2 0
q_2_0_0 63
q_2_0_1 7.58770823949817e-12
q_2_0_2 -1.1132961219573190e-10
q_2_1_0 0
q_2_1_1 -1.9259274730565323e-11
q_2_1_2 0
q_2_2_0 0
q_2_2_1 0
q_2_2_2 0
q_2_3_0 0
q_2_3_1 0
q_2_3_2 0
q_3_0_0 0
q_3_0_1 -1.9837211696652276e-11
q_3_0_2 0
q_3_1_0 0
q_3_1_1 0
q_3_1_2 0
q_3_2_0 0
q_3_2_1 166
q_3_2_2 0
q_3_3_0 0
q_3_3_1 1.9876769302913511e-11
q_3_3_2 0
q_4_0_0 0
q_4_0_1 190
q_4_0_2 0
q_4_1_0 0
q_4_1_1 0
q_4_1_2 0
q_4_2_0 0
q_4_2_1 0
q_4_2_2 0
q_4_3_0 0
q_4_3_1 0
q_4_3_2 0
q_5_0_0 3.19479442900672e-11
q_5_0_1 104
q_5_0_2 -4.8067327895751077e-11
q_5_1_0 0
q_5_1_1 0
q_5_1_2 0
q_5_2_0 0
q_5_2_1 1.7763568394002505e-15
q_5_2_2 3.5527136788005009e-15
q_5_3_0 0
q_5_3_1 0
q_5_3_2 0
q_6_0_0 1.1000000000006789e+01
q_6_0_1 0
q_6_0_2 4.2045034120974378e-11
q_6_1_0 0
q_6_1_1 -2.0339729900342718e-11
q_6_1_2 -2.1746160427937866e-11
q_6_2_0 0
q_6_2_1 0
q_6_2_2 0
q_6_3_0 0
q_6_3_1 0
q_6_3_2 0
q_7_0_0 7.1000000000000028e+01
q_7_0_1 0
q_7_0_2 0
q_7_1_0 0
q_7_1_1 0
q_7_1_2 0
q_7_2_0 0
q_7_2_1 0
q_7_2_2 0
q_7_3_0 0
q_7_3_1 0
q_7_3_2 0
q_8_0_0 0
q_8_0_1 -2.1751936218282713e-11
q_8_0_2 0
q_8_1_0 0
q_8_1_1 116
q_8_1_2 2.1751936218282713e-11
q_8_2_0 0
q_8_2_1 0
q_8_2_2 0
q_8_3_0 0
q_8_3_1 0
q_8_3_2 0
q_9_0_0 0
q_9_0_1 0
q_9_0_2 0
q_9_1_0 0
q_9_1_1 68
q_9_1_2 0
q_9_2_0 0
q_9_2_1 0
q_9_2_2 0
q_9_3_0 0
q_9_3_1 0
q_9_3_2 0
q_10_0_0 63
q_10_0_1 0
q_10_0_2 0
q_10_1_0 0
q_10_1_1 0
q_10_1_2 0
q_10_2_0 0
q_10_2_1 0
q_10_2_2 0
q_10_3_0 0
q_10_3_1 7.2901684688986279e-12
q_10_3_2 0
q_11_0_0 1.5200340985899174e-13
q_11_0_1 4.4408920985006262e-16
q_11_0_2 3.1064040229011880e-13
q_11_1_0 0
q_11_1_1 0
q_11_1_2 -7.1054273576010019e-15
q_11_2_0 0
q_11_2_1 0
q_11_2_2 7.1054273576010019e-15
q_11_3_0 0
q_11_3_1 71.9999999999997
q_11_3_2 0
q_12_0_0 3.4699673689964072e-13
q_12_0_1 0
q_12_0_2 7.0299321919264912e-13
q_12_1_0 0
q_12_1_1 0
q_12_1_2 0
q_12_2_0 0
q_12_2_1 0
q_12_2_2 0
q_12_3_0 0
q_12_3_1 1.6599999999999929e+02
q_12_3_2 0
q_13_0_0 6.1737420731233783e-12
q_13_0_1 -3.7503338307383987e-12
q_13_0_2 1.2351009104349941e-11
q_13_1_0 0
q_13_1_1 6.1146365748498965e-12
q_13_1_2 0
q_13_2_0 0
q_13_2_1 1.9999999999982975e+01
q_13_2_2 0
q_13_3_0 0
q_13_3_1 2.3163693185779266e-12
q_13_3_2 0
q_14_0_0 0
q_14_0_1 0
q_14_0_2 1.8373969012941416e-11
q_14_1_0 0
q_14_1_1 -9.17100423381001e-12
q_14_1_2 0
q_14_2_0 0
q_14_2_1 60
q_14_2_2 0
q_14_3_0 0
q_14_3_1 0
q_14_3_2 0
q_15_0_0 46
q_15_0_1 0
q_15_0_2 1.7763568394002505e-15
q_15_1_0 0
q_15_1_1 0
q_15_1_2 0
q_15_2_0 0
q_15_2_1 4.5999999999999645e+01
q_15_2_2 0
q_15_3_0 0
q_15_3_1 0
q_15_3_2 0
y_0_0_0 1
y_0_0_1 1
y_0_0_2 -3.0600522116230877e-13
y_0_1_0 0
y_0_1_1 1
y_0_1_2 0
y_0_2_0 0
y_0_2_1 1
y_0_2_2 0
y_0_3_0 0
y_0_3_1 1
y_0_3_2 0
y_1_0_0 0
y_1_0_1 0
y_1_0_2 0
y_1_1_0 0
y_1_1_1 1
y_1_1_2 0
y_1_2_0 0
y_1_2_1 0
y_1_2_2 0
y_1_3_0 0
y_1_3_1 0
y_1_3_2 0
y_2_0_0 1
y_2_0_1 0
y_2_0_2 -3.0595664890498142e-13
y_2_1_0 0
y_2_1_1 -3.0570619820313727e-13
y_2_1_2 0
y_2_2_0 0
y_2_2_1 0
y_2_2_2 0
y_2_3_0 0
y_2_3_1 0
y_2_3_2 0
y_3_0_0 0
y_3_0_1 -1.8751669153691995e-13
y_3_0_2 0
y_3_1_0 0
y_3_1_1 0
y_3_1_2 0
y_3_2_0 0
y_3_2_1 1
y_3_2_2 0
y_3_3_0 0
y_3_3_1 1.1973957411393680e-13
y_3_3_2 0
y_4_0_0 0
y_4_0_1 1
y_4_0_2 0
y_4_1_0 0
y_4_1_1 0
y_4_1_2 0
y_4_2_0 0
y_4_2_1 0
y_4_2_2 0
y_4_3_0 0
y_4_3_1 0
y_4_3_2 0
y_5_0_0 6.1438354403975382e-13
y_5_0_1 1
y_5_0_2 -3.0831240338535792e-13
y_5_1_0 0
y_5_1_1 0
y_5_1_2 0
y_5_2_0 0
y_5_2_1 0
y_5_2_2 0
y_5_3_0 0
y_5_3_1 0
y_5_3_2 0
y_6_0_0 1.0000000000006173e+00
y_6_0_1 0
y_6_0_2 3.06959319074096e-13
y_6_1_0 0
y_6_1_1 -9.2453822375659911e-13
y_6_1_2 0
y_6_2_0 0
y_6_2_1 0
y_6_2_2 0
y_6_3_0 0
y_6_3_1 0
y_6_3_2 0
y_7_0_0 1.0000000000000004e+00
y_7_0_1 0
y_7_0_2 0
y_7_1_0 0
y_7_1_1 0
y_7_1_2 0
y_7_2_0 0
y_7_2_1 0
y_7_2_2 0
y_7_3_0 0
y_7_3_1 0
y_7_3_2 0
y_8_0_0 0
y_8_0_1 -1.8751669153691995e-13
y_8_0_2 0
y_8_1_0 0
y_8_1_1 1
y_8_1_2 0
y_8_2_0 0
y_8_2_1 0
y_8_2_2 0
y_8_3_0 0
y_8_3_1 0
y_8_3_2 0
y_9_0_0 0
y_9_0_1 0
y_9_0_2 0
y_9_1_0 0
y_9_1_1 1
y_9_1_2 0
y_9_2_0 0
y_9_2_1 0
y_9_2_2 0
y_9_3_0 0
y_9_3_1 0
y_9_3_2 0
y_10_0_0 1
y_10_0_1 0
y_10_0_2 0
y_10_1_0 0
y_10_1_1 0
y_10_1_2 0
y_10_2_0 0
y_10_2_1 0
y_10_2_2 0
y_10_3_0 0
y_10_3_1 1.1568523916594131e-13
y_10_3_2 0
y_11_0_0 4.2223169405275485e-15
y_11_0_1 6.9388939039072284e-18
y_11_0_2 4.3125225612783424e-15
y_11_1_0 0
y_11_1_1 0
y_11_1_2 0
y_11_2_0 0
y_11_2_1 0
y_11_2_2 0
y_11_3_0 0
y_11_3_1 9.9999999999999567e-01
y_11_3_2 0
y_12_0_0 4.1806835771041051e-15
y_12_0_1 0
y_12_0_2 4.1945613649119196e-15
y_12_1_0 0
y_12_1_1 0
y_12_1_2 0
y_12_2_0 0
y_12_2_1 0
y_12_2_2 0
y_12_3_0 0
y_12_3_1 9.9999999999999567e-01
y_12_3_2 0
y_13_0_0 6.1737420731233783e-13
y_13_0_1 -1.8751669153691995e-13
y_13_0_2 6.1745053514528081e-13
y_13_1_0 0
y_13_1_1 3.0573395377875290e-13
y_13_1_2 0
y_13_2_0 0
y_13_2_1 9.9999999999914846e-01
y_13_2_2 0
y_13_3_0 0
y_13_3_1 1.1568523916594131e-13
y_13_3_2 0
y_14_0_0 0
y_14_0_1 0
y_14_0_2 3.0628277691846506e-13
y_14_1_0 0
y_14_1_1 -3.0569698248467114e-13
y_14_1_2 0
y_14_2_0 0
y_14_2_1 9.9999999999999944e-01
y_14_2_2 0
y_14_3_0 0
y_14_3_1 0
y_14_3_2 0
y_15_0_0 1
y_15_0_1 0
y_15_0_2 0
y_15_1_0 0
y_15_1_1 0
y_15_1_2 0
y_15_2_0 0
y_15_2_1 1
y_15_2_2 0
y_15_3_0 0
y_15_3_1 0
y_15_3_2 0
x_0_1_0_0 0
x_0_1_0_1 0
x_0_1_0_2 0
x_0_1_1_0 0
x_0_1_1_1 1
x_0_1_1_2 0
x_0_1_2_0 0
x_0_1_2_1 0
x_0_1_2_2 0
x_0_1_3_0 0
x_0_1_3_1 0
x_0_1_3_2 0
x_0_2_0_0 0
x_0_2_0_1 0
x_0_2_0_2 0
x_0_2_1_0 0
x_0_2_1_1 0
x_0_2_1_2 0
x_0_2_2_0 0
x_0_2_2_1 0
x_0_2_2_2 0
x_0_2_3_0 0
x_0_2_3_1 0
x_0_2_3_2 0
x_0_3_0_0 0
x_0_3_0_1 0
x_0_3_0_2 0
x_0_3_1_0 0
x_0_3_1_1 0
x_0_3_1_2 0
x_0_3_2_0 0
x_0_3_2_1 1.0000000000000002e+00
x_0_3_2_2 0
x_0_3_3_0 0
x_0_3_3_1 2.3947914822787360e-13
x_0_3_3_2 0
x_0_4_0_0 0
x_0_4_0_1 1.0000000000001830e+00
x_0_4_0_2 0
x_0_4_1_0 0
x_0_4_1_1 0
x_0_4_1_2 0
x_0_4_2_0 0
x_0_4_2_1 0
x_0_4_2_2 0
x_0_4_3_0 0
x_0_4_3_1 0
x_0_4_3_2 0
x_0_5_0_0 1.2316259123679174e-12
x_0_5_0_1 1.0000000000000042e+00
x_0_5_0_2 -6.1662480677071585e-13
x_0_5_1_0 0
x_0_5_1_1 0
x_0_5_1_2 0
x_0_5_2_0 0
x_0_5_2_1 0
x_0_5_2_2 0
x_0_5_3_0 0
x_0_5_3_1 0
x_0_5_3_2 0
x_0_6_0_0 0
x_0_6_0_1 0
x_0_6_0_2 0
x_0_6_1_0 0
x_0_6_1_1 0
x_0_6_1_2 0
x_0_6_2_0 0
x_0_6_2_1 0
x_0_6_2_2 0
x_0_6_3_0 0
x_0_6_3_1 0
x_0_6_3_2 0
x_0_7_0_0 1.0000000000000004e+00
x_0_7_0_1 0
x_0_7_0_2 0
x_0_7_1_0 0
x_0_7_1_1 0
x_0_7_1_2 0
x_0_7_2_0 0
x_0_7_2_1 0
x_0_7_2_2 0
x_0_7_3_0 0
x_0_7_3_1 0
x_0_7_3_2 0
x_0_8_0_0 0
x_0_8_0_1 0
x_0_8_0_2 0
x_0_8_1_0 0
x_0_8_1_1 0
x_0_8_1_2 0
x_0_8_2_0 0
x_0_8_2_1 0
x_0_8_2_2 0
x_0_8_3_0 0
x_0_8_3_1 0
x_0_8_3_2 0
x_0_9_0_0 0
x_0_9_0_1 -1.8751669153691995e-13
x_0_9_0_2 0
x_0_9_1_0 0
x_0_9_1_1 1
x_0_9_1_2 0
x_0_9_2_0 0
x_0_9_2_1 0
x_0_9_2_2 0
x_0_9_3_0 0
x_0_9_3_1 0
x_0_9_3_2 0
x_0_10_0_0 -4.1043557441611256e-15
x_0_10_0_1 0
x_0_10_0_2 0
x_0_10_1_0 0
x_0_10_1_1 0
x_0_10_1_2 0
x_0_10_2_0 0
x_0_10_2_1 0
x_0_10_2_2 0
x_0_10_3_0 0
x_0_10_3_1 0
x_0_10_3_2 0
x_0_11_0_0 -6.1030347442425636e-13
x_0_11_0_1 0
x_0_11_0_2 4.3819115003174147e-15
x_0_11_1_0 0
x_0_11_1_1 0
x_0_11_1_2 0
x_0_11_2_0 0
x_0_11_2_1 -4.40619762898109e-15
x_0_11_2_2 0
x_0_11_3_0 0
x_0_11_3_1 9.9999999999999589e-01
x_0_11_3_2 0
x_0_12_0_0 0
x_0_12_0_1 0
x_0_12_0_2 0
x_0_12_1_0 0
x_0_12_1_1 0
x_0_12_1_2 0
x_0_12_2_0 0
x_0_12_2_1 0
x_0_12_2_2 0
x_0_12_3_0 0
x_0_12_3_1 9.9999999999976474e-01
x_0_12_3_2 0
x_0_13_0_0 0
x_0_13_0_1 0
x_0_13_0_2 0
x_0_13_1_0 0
x_0_13_1_1 0
x_0_13_1_2 0
x_0_13_2_0 0
x_0_13_2_1 9.9999999999914890e-01
x_0_13_2_2 0
x_0_13_3_0 0
x_0_13_3_1 0
x_0_13_3_2 0
x_0_14_0_0 0
x_0_14_0_1 0
x_0_14_0_2 0
x_0_14_1_0 0
x_0_14_1_1 0
x_0_14_1_2 0
x_0_14_2_0 0
x_0_14_2_1 8.5055920640009219e-13
x_0_14_2_2 0
x_0_14_3_0 0
x_0_14_3_1 0
x_0_14_3_2 0
x_0_15_0_0 9.9999999999938238e-01
x_0_15_0_1 0
x_0_15_0_2 0
x_0_15_1_0 0
x_0_15_1_1 0
x_0_15_1_2 0
x_0_15_2_0 0
x_0_15_2_1 4.5796699765787707e-16
x_0_15_2_2 0
x_0_15_3_0 0
x_0_15_3_1 0
x_0_15_3_2 0
x_1_2_0_0 0
x_1_2_0_1 0
x_1_2_0_2 0
x_1_2_1_0 0
x_1_2_1_1 3.0575140943372991e-13
x_1_2_1_2 0
x_1_2_2_0 0
x_1_2_2_1 0
x_1_2_2_2 0
x_1_2_3_0 0
x_1_2_3_1 0
x_1_2_3_2 0
x_1_3_0_0 0
x_1_3_0_1 0
x_1_3_0_2 0
x_1_3_1_0 0
x_1_3_1_1 0
x_1_3_1_2 0
x_1_3_2_0 0
x_1_3_2_1 0
x_1_3_2_2 0
x_1_3_3_0 0
x_1_3_3_1 0
x_1_3_3_2 0
x_1_4_0_0 0
x_1_4_0_1 0
x_1_4_0_2 0
x_1_4_1_0 0
x_1_4_1_1 0
x_1_4_1_2 0
x_1_4_2_0 0
x_1_4_2_1 0
x_1_4_2_2 0
x_1_4_3_0 0
x_1_4_3_1 0
x_1_4_3_2 0
x_1_5_0_0 0
x_1_5_0_1 0
x_1_5_0_2 0
x_1_5_1_0 0
x_1_5_1_1 0
x_1_5_1_2 0
x_1_5_2_0 0
x_1_5_2_1 0
x_1_5_2_2 0
x_1_5_3_0 0
x_1_5_3_1 0
x_1_5_3_2 0
x_1_6_0_0 0
x_1_6_0_1 0
x_1_6_0_2 0
x_1_6_1_0 0
x_1_6_1_1 -2.4605595339011188e-12
x_1_6_1_2 0
x_1_6_2_0 0
x_1_6_2_1 0
x_1_6_2_2 0
x_1_6_3_0 0
x_1_6_3_1 0
x_1_6_3_2 0
x_1_7_0_0 0
x_1_7_0_1 0
x_1_7_0_2 0
x_1_7_1_0 0
x_1_7_1_1 0
x_1_7_1_2 0
x_1_7_2_0 0
x_1_7_2_1 0
x_1_7_2_2 0
x_1_7_3_0 0
x_1_7_3_1 0
x_1_7_3_2 0
x_1_8_0_0 0
x_1_8_0_1 0
x_1_8_0_2 0
x_1_8_1_0 0
x_1_8_1_1 1
x_1_8_1_2 0
x_1_8_2_0 0
x_1_8_2_1 0
x_1_8_2_2 0
x_1_8_3_0 0
x_1_8_3_1 0
x_1_8_3_2 0
x_1_9_0_0 0
x_1_9_0_1 0
x_1_9_0_2 0
x_1_9_1_0 0
x_1_9_1_1 1.2301826224359047e-12
x_1_9_1_2 0
x_1_9_2_0 0
x_1_9_2_1 0
x_1_9_2_2 0
x_1_9_3_0 0
x_1_9_3_1 0
x_1_9_3_2 0
x_1_10_0_0 0
x_1_10_0_1 0
x_1_10_0_2 0
x_1_10_1_0 0
x_1_10_1_1 0
x_1_10_1_2 0
x_1_10_2_0 0
x_1_10_2_1 0
x_1_10_2_2 0
x_1_10_3_0 0
x_1_10_3_1 0
x_1_10_3_2 0
x_1_11_0_0 0
x_1_11_0_1 0
x_1_11_0_2 0
x_1_11_1_0 0
x_1_11_1_1 0
x_1_11_1_2 0
x_1_11_2_0 0
x_1_11_2_1 0
x_1_11_2_2 0
x_1_11_3_0 0
x_1_11_3_1 0
x_1_11_3_2 0
x_1_12_0_0 0
x_1_12_0_1 0
x_1_12_0_2 0
x_1_12_1_0 0
x_1_12_1_1 0
x_1_12_1_2 0
x_1_12_2_0 0
x_1_12_2_1 0
x_1_12_2_2 0
x_1_12_3_0 0
x_1_12_3_1 0
x_1_12_3_2 0
x_1_13_0_0 0
x_1_13_0_1 0
x_1_13_0_2 0
x_1_13_1_0 0
x_1_13_1_1 0
x_1_13_1_2 0
x_1_13_2_0 0
x_1_13_2_1 0
x_1_13_2_2 0
x_1_13_3_0 0
x_1_13_3_1 0
x_1_13_3_2 0
x_1_14_0_0 0
x_1_14_0_1 0
x_1_14_0_2 0
x_1_14_1_0 0
x_1_14_1_1 9.2459373490783037e-13
x_1_14_1_2 0
x_1_14_2_0 0
x_1_14_2_1 0
x_1_14_2_2 0
x_1_14_3_0 0
x_1_14_3_1 0
x_1_14_3_2 0
x_1_15_0_0 0
x_1_15_0_1 0
x_1_15_0_2 0
x_1_15_1_0 0
x_1_15_1_1 0
x_1_15_1_2 0
x_1_15_2_0 0
x_1_15_2_1 0
x_1_15_2_2 0
x_1_15_3_0 0
x_1_15_3_1 0
x_1_15_3_2 0
x_2_3_0_0 0
x_2_3_0_1 0
x_2_3_0_2 0
x_2_3_1_0 0
x_2_3_1_1 0
x_2_3_1_2 0
x_2_3_2_0 0
x_2_3_2_1 0
x_2_3_2_2 0
x_2_3_3_0 0
x_2_3_3_1 0
x_2_3_3_2 0
x_2_4_0_0 0
x_2_4_0_1 0
x_2_4_0_2 0
x_2_4_1_0 0
x_2_4_1_1 0
x_2_4_1_2 0
x_2_4_2_0 0
x_2_4_2_1 0
x_2_4_2_2 0
x_2_4_3_0 0
x_2_4_3_1 0
x_2_4_3_2 0
x_2_5_0_0 0
x_2_5_0_1 0
x_2_5_0_2 0
x_2_5_1_0 0
x_2_5_1_1 0
x_2_5_1_2 0
x_2_5_2_0 0
x_2_5_2_1 0
x_2_5_2_2 0
x_2_5_3_0 0
x_2_5_3_1 0
x_2_5_3_2 0
x_2_6_0_0 1.0000000000006173e+00
x_2_6_0_1 0
x_2_6_0_2 -3.0559929586893020e-13
x_2_6_1_0 0
x_2_6_1_1 0
x_2_6_1_2 0
x_2_6_2_0 0
x_2_6_2_1 0
x_2_6_2_2 0
x_2_6_3_0 0
x_2_6_3_1 0
x_2_6_3_2 0
x_2_7_0_0 0
x_2_7_0_1 0
x_2_7_0_2 0
x_2_7_1_0 0
x_2_7_1_1 0
x_2_7_1_2 0
x_2_7_2_0 0
x_2_7_2_1 0
x_2_7_2_2 0
x_2_7_3_0 0
x_2_7_3_1 0
x_2_7_3_2 0
x_2_8_0_0 0
x_2_8_0_1 0
x_2_8_0_2 0
x_2_8_1_0 0
x_2_8_1_1 9.2456597933221474e-13
x_2_8_1_2 0
x_2_8_2_0 0
x_2_8_2_1 0
x_2_8_2_2 0
x_2_8_3_0 0
x_2_8_3_1 0
x_2_8_3_2 0
x_2_9_0_0 0
x_2_9_0_1 0
x_2_9_0_2 0
x_2_9_1_0 0
x_2_9_1_1 0
x_2_9_1_2 0
x_2_9_2_0 0
x_2_9_2_1 0
x_2_9_2_2 0
x_2_9_3_0 0
x_2_9_3_1 0
x_2_9_3_2 0
x_2_10_0_0 0
x_2_10_0_1 0
x_2_10_0_2 0
x_2_10_1_0 0
x_2_10_1_1 0
x_2_10_1_2 0
x_2_10_2_0 0
x_2_10_2_1 0
x_2_10_2_2 0
x_2_10_3_0 0
x_2_10_3_1 0
x_2_10_3_2 0
x_2_11_0_0 0
x_2_11_0_1 0
x_2_11_0_2 0
x_2_11_1_0 0
x_2_11_1_1 0
x_2_11_1_2 0
x_2_11_2_0 0
x_2_11_2_1 0
x_2_11_2_2 0
x_2_11_3_0 0
x_2_11_3_1 0
x_2_11_3_2 0
x_2_12_0_0 0
x_2_12_0_1 0
x_2_12_0_2 0
x_2_12_1_0 0
x_2_12_1_1 0
x_2_12_1_2 0
x_2_12_2_0 0
x_2_12_2_1 0
x_2_12_2_2 0
x_2_12_3_0 0
x_2_12_3_1 0
x_2_12_3_2 0
x_2_13_0_0 0
x_2_13_0_1 0
x_2_13_0_2 0
x_2_13_1_0 0
x_2_13_1_1 0
x_2_13_1_2 0
x_2_13_2_0 0
x_2_13_2_1 0
x_2_13_2_2 0
x_2_13_3_0 0
x_2_13_3_1 0
x_2_13_3_2 0
x_2_14_0_0 -6.1756155744774333e-13
x_2_14_0_1 0
x_2_14_0_2 -6.1325250433341694e-13
x_2_14_1_0 0
x_2_14_1_1 -1.8417073421872487e-12
x_2_14_1_2 0
x_2_14_2_0 0
x_2_14_2_1 0
x_2_14_2_2 0
x_2_14_3_0 0
x_2_14_3_1 0
x_2_14_3_2 0
x_2_15_0_0 1
x_2_15_0_1 0
x_2_15_0_2 3.0667135497708387e-13
x_2_15_1_0 0
x_2_15_1_1 0
x_2_15_1_2 0
x_2_15_2_0 0
x_2_15_2_1 0
x_2_15_2_2 0
x_2_15_3_0 0
x_2_15_3_1 0
x_2_15_3_2 0
x_3_4_0_0 0
x_3_4_0_1 -3.7503338307383990e-13
x_3_4_0_2 0
x_3_4_1_0 0
x_3_4_1_1 0
x_3_4_1_2 0
x_3_4_2_0 0
x_3_4_2_1 0
x_3_4_2_2 0
x_3_4_3_0 0
x_3_4_3_1 0
x_3_4_3_2 0
x_3_5_0_0 0
x_3_5_0_1 0
x_3_5_0_2 0
x_3_5_1_0 0
x_3_5_1_1 0
x_3_5_1_2 0
x_3_5_2_0 0
x_3_5_2_1 0
x_3_5_2_2 0
x_3_5_3_0 0
x_3_5_3_1 0
x_3_5_3_2 0
x_3_6_0_0 0
x_3_6_0_1 0
x_3_6_0_2 0
x_3_6_1_0 0
x_3_6_1_1 0
x_3_6_1_2 0
x_3_6_2_0 0
x_3_6_2_1 0
x_3_6_2_2 0
x_3_6_3_0 0
x_3_6_3_1 0
x_3_6_3_2 0
x_3_7_0_0 0
x_3_7_0_1 0
x_3_7_0_2 0
x_3_7_1_0 0
x_3_7_1_1 0
x_3_7_1_2 0
x_3_7_2_0 0
x_3_7_2_1 0
x_3_7_2_2 0
x_3_7_3_0 0
x_3_7_3_1 0
x_3_7_3_2 0
x_3_8_0_0 0
x_3_8_0_1 0
x_3_8_0_2 0
x_3_8_1_0 0
x_3_8_1_1 0
x_3_8_1_2 0
x_3_8_2_0 0
x_3_8_2_1 0
x_3_8_2_2 0
x_3_8_3_0 0
x_3_8_3_1 0
x_3_8_3_2 0
x_3_9_0_0 0
x_3_9_0_1 0
x_3_9_0_2 0
x_3_9_1_0 0
x_3_9_1_1 0
x_3_9_1_2 0
x_3_9_2_0 0
x_3_9_2_1 0
x_3_9_2_2 0
x_3_9_3_0 0
x_3_9_3_1 0
x_3_9_3_2 0
x_3_10_0_0 0
x_3_10_0_1 0
x_3_10_0_2 0
x_3_10_1_0 0
x_3_10_1_1 0
x_3_10_1_2 0
x_3_10_2_0 0
x_3_10_2_1 0
x_3_10_2_2 0
x_3_10_3_0 0
x_3_10_3_1 0
x_3_10_3_2 0
x_3_11_0_0 0
x_3_11_0_1 0
x_3_11_0_2 0
x_3_11_1_0 0
x_3_11_1_1 0
x_3_11_1_2 0
x_3_11_2_0 0
x_3_11_2_1 0
x_3_11_2_2 0
x_3_11_3_0 0
x_3_11_3_1 0
x_3_11_3_2 0
x_3_12_0_0 0
x_3_12_0_1 0
x_3_12_0_2 0
x_3_12_1_0 0
x_3_12_1_1 0
x_3_12_1_2 0
x_3_12_2_0 0
x_3_12_2_1 0
x_3_12_2_2 0
x_3_12_3_0 0
x_3_12_3_1 0
x_3_12_3_2 0
x_3_13_0_0 0
x_3_13_0_1 0
x_3_13_0_2 0
x_3_13_1_0 0
x_3_13_1_1 0
x_3_13_1_2 0
x_3_13_2_0 0
x_3_13_2_1 5.5511151231257827e-17
x_3_13_2_2 0
x_3_13_3_0 0
x_3_13_3_1 0
x_3_13_3_2 0
x_3_14_0_0 0
x_3_14_0_1 0
x_3_14_0_2 0
x_3_14_1_0 0
x_3_14_1_1 0
x_3_14_1_2 0
x_3_14_2_0 0
x_3_14_2_1 0
x_3_14_2_2 0
x_3_14_3_0 0
x_3_14_3_1 0
x_3_14_3_2 0
x_3_15_0_0 0
x_3_15_0_1 0
x_3_15_0_2 0
x_3_15_1_0 0
x_3_15_1_1 0
x_3_15_1_2 0
x_3_15_2_0 0
x_3_15_2_1 1
x_3_15_2_2 0
x_3_15_3_0 0
x_3_15_3_1 0
x_3_15_3_2 0
x_4_5_0_0 0
x_4_5_0_1 9.9999999999999567e-01
x_4_5_0_2 0
x_4_5_1_0 0
x_4_5_1_1 0
x_4_5_1_2 0
x_4_5_2_0 0
x_4_5_2_1 0
x_4_5_2_2 0
x_4_5_3_0 0
x_4_5_3_1 0
x_4_5_3_2 0
x_4_6_0_0 0
x_4_6_0_1 0
x_4_6_0_2 0
x_4_6_1_0 0
x_4_6_1_1 0
x_4_6_1_2 0
x_4_6_2_0 0
x_4_6_2_1 0
x_4_6_2_2 0
x_4_6_3_0 0
x_4_6_3_1 0
x_4_6_3_2 0
x_4_7_0_0 0
x_4_7_0_1 1.8751666885918894e-13
x_4_7_0_2 0
x_4_7_1_0 0
x_4_7_1_1 0
x_4_7_1_2 0
x_4_7_2_0 0
x_4_7_2_1 0
x_4_7_2_2 0
x_4_7_3_0 0
x_4_7_3_1 0
x_4_7_3_2 0
x_4_8_0_0 0
x_4_8_0_1 -3.7503338307383990e-13
x_4_8_0_2 3.0853791743723491e-13
x_4_8_1_0 0
x_4_8_1_1 0
x_4_8_1_2 0
x_4_8_2_0 0
x_4_8_2_1 0
x_4_8_2_2 0
x_4_8_3_0 0
x_4_8_3_1 0
x_4_8_3_2 0
x_4_9_0_0 0
x_4_9_0_1 1.8751669153691995e-13
x_4_9_0_2 0
x_4_9_1_0 0
x_4_9_1_1 0
x_4_9_1_2 0
x_4_9_2_0 0
x_4_9_2_1 0
x_4_9_2_2 0
x_4_9_3_0 0
x_4_9_3_1 0
x_4_9_3_2 0
x_4_10_0_0 0
x_4_10_0_1 1.8751669153691995e-13
x_4_10_0_2 0
x_4_10_1_0 0
x_4_10_1_1 0
x_4_10_1_2 0
x_4_10_2_0 0
x_4_10_2_1 0
x_4_10_2_2 0
x_4_10_3_0 0
x_4_10_3_1 0
x_4_10_3_2 0
x_4_11_0_0 0
x_4_11_0_1 0
x_4_11_0_2 0
x_4_11_1_0 0
x_4_11_1_1 0
x_4_11_1_2 0
x_4_11_2_0 0
x_4_11_2_1 0
x_4_11_2_2 0
x_4_11_3_0 0
x_4_11_3_1 0
x_4_11_3_2 0
x_4_12_0_0 0
x_4_12_0_1 0
x_4_12_0_2 0
x_4_12_1_0 0
x_4_12_1_1 0
x_4_12_1_2 0
x_4_12_2_0 0
x_4_12_2_1 0
x_4_12_2_2 0
x_4_12_3_0 0
x_4_12_3_1 0
x_4_12_3_2 0
x_4_13_0_0 0
x_4_13_0_1 0
x_4_13_0_2 0
x_4_13_1_0 0
x_4_13_1_1 0
x_4_13_1_2 0
x_4_13_2_0 0
x_4_13_2_1 0
x_4_13_2_2 0
x_4_13_3_0 0
x_4_13_3_1 0
x_4_13_3_2 0
x_4_14_0_0 0
x_4_14_0_1 0
x_4_14_0_2 0
x_4_14_1_0 0
x_4_14_1_1 0
x_4_14_1_2 0
x_4_14_2_0 0
x_4_14_2_1 0
x_4_14_2_2 0
x_4_14_3_0 0
x_4_14_3_1 0
x_4_14_3_2 0
x_4_15_0_0 0
x_4_15_0_1 0
x_4_15_0_2 -3.0856567301285054e-13
x_4_15_1_0 0
x_4_15_1_1 0
x_4_15_1_2 0
x_4_15_2_0 0
x_4_15_2_1 0
x_4_15_2_2 0
x_4_15_3_0 0
x_4_15_3_1 0
x_4_15_3_2 0
x_5_6_0_0 0
x_5_6_0_1 0
x_5_6_0_2 0
x_5_6_1_0 0
x_5_6_1_1 0
x_5_6_1_2 0
x_5_6_2_0 0
x_5_6_2_1 0
x_5_6_2_2 0
x_5_6_3_0 0
x_5_6_3_1 0
x_5_6_3_2 0
x_5_7_0_0 0
x_5_7_0_1 0
x_5_7_0_2 0
x_5_7_1_0 0
x_5_7_1_1 0
x_5_7_1_2 0
x_5_7_2_0 0
x_5_7_2_1 0
x_5_7_2_2 0
x_5_7_3_0 0
x_5_7_3_1 0
x_5_7_3_2 0
x_5_8_0_0 0
x_5_8_0_1 0
x_5_8_0_2 0
x_5_8_1_0 0
x_5_8_1_1 0
x_5_8_1_2 0
x_5_8_2_0 0
x_5_8_2_1 0
x_5_8_2_2 0
x_5_8_3_0 0
x_5_8_3_1 0
x_5_8_3_2 0
x_5_9_0_0 0
x_5_9_0_1 0
x_5_9_0_2 0
x_5_9_1_0 0
x_5_9_1_1 0
x_5_9_1_2 0
x_5_9_2_0 0
x_5_9_2_1 0
x_5_9_2_2 0
x_5_9_3_0 0
x_5_9_3_1 0
x_5_9_3_2 0
x_5_10_0_0 0
x_5_10_0_1 0
x_5_10_0_2 0
x_5_10_1_0 0
x_5_10_1_1 0
x_5_10_1_2 0
x_5_10_2_0 0
x_5_10_2_1 0
x_5_10_2_2 0
x_5_10_3_0 0
x_5_10_3_1 0
x_5_10_3_2 0
x_5_11_0_0 -2.9160701631170127e-15
x_5_11_0_1 1.3877787807814457e-17
x_5_11_0_2 0
x_5_11_1_0 0
x_5_11_1_1 0
x_5_11_1_2 0
x_5_11_2_0 0
x_5_11_2_1 0
x_5_11_2_2 0
x_5_11_3_0 0
x_5_11_3_1 0
x_5_11_3_2 0
x_5_12_0_0 0
x_5_12_0_1 0
x_5_12_0_2 0
x_5_12_1_0 0
x_5_12_1_1 0
x_5_12_1_2 0
x_5_12_2_0 0
x_5_12_2_1 0
x_5_12_2_2 0
x_5_12_3_0 0
x_5_12_3_1 0
x_5_12_3_2 0
x_5_13_0_0 0
x_5_13_0_1 0
x_5_13_0_2 0
x_5_13_1_0 0
x_5_13_1_1 0
x_5_13_1_2 0
x_5_13_2_0 0
x_5_13_2_1 0
x_5_13_2_2 0
x_5_13_3_0 0
x_5_13_3_1 0
x_5_13_3_2 0
x_5_14_0_0 0
x_5_14_0_1 0
x_5_14_0_2 0
x_5_14_1_0 0
x_5_14_1_1 0
x_5_14_1_2 0
x_5_14_2_0 0
x_5_14_2_1 0
x_5_14_2_2 0
x_5_14_3_0 0
x_5_14_3_1 0
x_5_14_3_2 0
x_5_15_0_0 0
x_5_15_0_1 0
x_5_15_0_2 0
x_5_15_1_0 0
x_5_15_1_1 0
x_5_15_1_2 0
x_5_15_2_0 0
x_5_15_2_1 0
x_5_15_2_2 0
x_5_15_3_0 0
x_5_15_3_1 0
x_5_15_3_2 0
x_6_7_0_0 0
x_6_7_0_1 0
x_6_7_0_2 0
x_6_7_1_0 0
x_6_7_1_1 0
x_6_7_1_2 0
x_6_7_2_0 0
x_6_7_2_1 0
x_6_7_2_2 0
x_6_7_3_0 0
x_6_7_3_1 0
x_6_7_3_2 0
x_6_8_0_0 0
x_6_8_0_1 0
x_6_8_0_2 0
x_6_8_1_0 0
x_6_8_1_1 0
x_6_8_1_2 0
x_6_8_2_0 0
x_6_8_2_1 0
x_6_8_2_2 0
x_6_8_3_0 0
x_6_8_3_1 0
x_6_8_3_2 0
x_6_9_0_0 0
x_6_9_0_1 0
x_6_9_0_2 0
x_6_9_1_0 0
x_6_9_1_1 0
x_6_9_1_2 0
x_6_9_2_0 0
x_6_9_2_1 0
x_6_9_2_2 0
x_6_9_3_0 0
x_6_9_3_1 0
x_6_9_3_2 0
x_6_10_0_0 1.0000000000006173e+00
x_6_10_0_1 0
x_6_10_0_2 0
x_6_10_1_0 0
x_6_10_1_1 0
x_6_10_1_2 0
x_6_10_2_0 0
x_6_10_2_1 0
x_6_10_2_2 0
x_6_10_3_0 0
x_6_10_3_1 0
x_6_10_3_2 0
x_6_11_0_0 0
x_6_11_0_1 0
x_6_11_0_2 0
x_6_11_1_0 0
x_6_11_1_1 0
x_6_11_1_2 0
x_6_11_2_0 0
x_6_11_2_1 0
x_6_11_2_2 0
x_6_11_3_0 0
x_6_11_3_1 0
x_6_11_3_2 0
x_6_12_0_0 0
x_6_12_0_1 0
x_6_12_0_2 0
x_6_12_1_0 0
x_6_12_1_1 0
x_6_12_1_2 0
x_6_12_2_0 0
x_6_12_2_1 0
x_6_12_2_2 0
x_6_12_3_0 0
x_6_12_3_1 0
x_6_12_3_2 0
x_6_13_0_0 0
x_6_13_0_1 0
x_6_13_0_2 6.1292637631993330e-13
x_6_13_1_0 0
x_6_13_1_1 6.1146790755750580e-13
x_6_13_1_2 0
x_6_13_2_0 0
x_6_13_2_1 0
x_6_13_2_2 0
x_6_13_3_0 0
x_6_13_3_1 0
x_6_13_3_2 0
x_6_14_0_0 0
x_6_14_0_1 0
x_6_14_0_2 3.0657767990938112e-13
x_6_14_1_0 0
x_6_14_1_1 0
x_6_14_1_2 0
x_6_14_2_0 0
x_6_14_2_1 0
x_6_14_2_2 0
x_6_14_3_0 0
x_6_14_3_1 0
x_6_14_3_2 0
x_6_15_0_0 0
x_6_15_0_1 0
x_6_15_0_2 0
x_6_15_1_0 0
x_6_15_1_1 0
x_6_15_1_2 0
x_6_15_2_0 0
x_6_15_2_1 0
x_6_15_2_2 0
x_6_15_3_0 0
x_6_15_3_1 0
x_6_15_3_2 0
x_7_8_0_0 0
x_7_8_0_1 0
x_7_8_0_2 0
x_7_8_1_0 0
x_7_8_1_1 0
x_7_8_1_2 0
x_7_8_2_0 0
x_7_8_2_1 0
x_7_8_2_2 0
x_7_8_3_0 0
x_7_8_3_1 0
x_7_8_3_2 0
x_7_9_0_0 0
x_7_9_0_1 0
x_7_9_0_2 0
x_7_9_1_0 0
x_7_9_1_1 0
x_7_9_1_2 0
x_7_9_2_0 0
x_7_9_2_1 0
x_7_9_2_2 0
x_7_9_3_0 0
x_7_9_3_1 0
x_7_9_3_2 0
x_7_10_0_0 0.999999999999383
x_7_10_0_1 0
x_7_10_0_2 0
x_7_10_1_0 0
x_7_10_1_1 0
x_7_10_1_2 0
x_7_10_2_0 0
x_7_10_2_1 0
x_7_10_2_2 0
x_7_10_3_0 0
x_7_10_3_1 0
x_7_10_3_2 0
x_7_11_0_0 0
x_7_11_0_1 0
x_7_11_0_2 0
x_7_11_1_0 0
x_7_11_1_1 0
x_7_11_1_2 0
x_7_11_2_0 0
x_7_11_2_1 0
x_7_11_2_2 0
x_7_11_3_0 0
x_7_11_3_1 0
x_7_11_3_2 0
x_7_12_0_0 0
x_7_12_0_1 0
x_7_12_0_2 0
x_7_12_1_0 0
x_7_12_1_1 0
x_7_12_1_2 0
x_7_12_2_0 0
x_7_12_2_1 0
x_7_12_2_2 0
x_7_12_3_0 0
x_7_12_3_1 0
x_7_12_3_2 0
x_7_13_0_0 0
x_7_13_0_1 -1.8751669153691995e-13
x_7_13_0_2 0
x_7_13_1_0 0
x_7_13_1_1 0
x_7_13_1_2 0
x_7_13_2_0 0
x_7_13_2_1 0
x_7_13_2_2 0
x_7_13_3_0 0
x_7_13_3_1 0
x_7_13_3_2 0
x_7_14_0_0 6.1747829072089644e-13
x_7_14_0_1 0
x_7_14_0_2 0
x_7_14_1_0 0
x_7_14_1_1 0
x_7_14_1_2 0
x_7_14_2_0 0
x_7_14_2_1 0
x_7_14_2_2 0
x_7_14_3_0 0
x_7_14_3_1 0
x_7_14_3_2 0
x_7_15_0_0 0
x_7_15_0_1 0
x_7_15_0_2 0
x_7_15_1_0 0
x_7_15_1_1 0
x_7_15_1_2 0
x_7_15_2_0 0
x_7_15_2_1 0
x_7_15_2_2 0
x_7_15_3_0 0
x_7_15_3_1 0
x_7_15_3_2 0
x_8_9_0_0 0
x_8_9_0_1 0
x_8_9_0_2 0
x_8_9_1_0 0
x_8_9_1_1 9.9999999999876965e-01
x_8_9_1_2 0
x_8_9_2_0 0
x_8_9_2_1 0
x_8_9_2_2 0
x_8_9_3_0 0
x_8_9_3_1 0
x_8_9_3_2 0
x_8_10_0_0 0
x_8_10_0_1 0
x_8_10_0_2 0
x_8_10_1_0 0
x_8_10_1_1 0
x_8_10_1_2 0
x_8_10_2_0 0
x_8_10_2_1 0
x_8_10_2_2 0
x_8_10_3_0 0
x_8_10_3_1 0
x_8_10_3_2 0
x_8_11_0_0 0
x_8_11_0_1 0
x_8_11_0_2 0
x_8_11_1_0 0
x_8_11_1_1 0
x_8_11_1_2 0
x_8_11_2_0 0
x_8_11_2_1 0
x_8_11_2_2 0
x_8_11_3_0 0
x_8_11_3_1 0
x_8_11_3_2 0
x_8_12_0_0 0
x_8_12_0_1 0
x_8_12_0_2 0
x_8_12_1_0 0
x_8_12_1_1 0
x_8_12_1_2 0
x_8_12_2_0 0
x_8_12_2_1 0
x_8_12_2_2 0
x_8_12_3_0 0
x_8_12_3_1 0
x_8_12_3_2 0
x_8_13_0_0 0
x_8_13_0_1 0
x_8_13_0_2 0
x_8_13_1_0 0
x_8_13_1_1 0
x_8_13_1_2 0
x_8_13_2_0 0
x_8_13_2_1 0
x_8_13_2_2 0
x_8_13_3_0 0
x_8_13_3_1 0
x_8_13_3_2 0
x_8_14_0_0 0
x_8_14_0_1 0
x_8_14_0_2 0
x_8_14_1_0 0
x_8_14_1_1 3.0573395377875290e-13
x_8_14_1_2 0
x_8_14_2_0 0
x_8_14_2_1 0
x_8_14_2_2 0
x_8_14_3_0 0
x_8_14_3_1 0
x_8_14_3_2 0
x_8_15_0_0 0
x_8_15_0_1 0
x_8_15_0_2 -3.0853791743723491e-13
x_8_15_1_0 0
x_8_15_1_1 0
x_8_15_1_2 0
x_8_15_2_0 0
x_8_15_2_1 0
x_8_15_2_2 0
x_8_15_3_0 0
x_8_15_3_1 0
x_8_15_3_2 0
x_9_10_0_0 0
x_9_10_0_1 0
x_9_10_0_2 0
x_9_10_1_0 0
x_9_10_1_1 0
x_9_10_1_2 0
x_9_10_2_0 0
x_9_10_2_1 0
x_9_10_2_2 0
x_9_10_3_0 0
x_9_10_3_1 0
x_9_10_3_2 0
x_9_11_0_0 0
x_9_11_0_1 0
x_9_11_0_2 0
x_9_11_1_0 0
x_9_11_1_1 0
x_9_11_1_2 0
x_9_11_2_0 0
x_9_11_2_1 0
x_9_11_2_2 0
x_9_11_3_0 0
x_9_11_3_1 0
x_9_11_3_2 0
x_9_12_0_0 0
x_9_12_0_1 0
x_9_12_0_2 0
x_9_12_1_0 0
x_9_12_1_1 0
x_9_12_1_2 0
x_9_12_2_0 0
x_9_12_2_1 0
x_9_12_2_2 0
x_9_12_3_0 0
x_9_12_3_1 0
x_9_12_3_2 0
x_9_13_0_0 0
x_9_13_0_1 0
x_9_13_0_2 0
x_9_13_1_0 0
x_9_13_1_1 0
x_9_13_1_2 0
x_9_13_2_0 0
x_9_13_2_1 0
x_9_13_2_2 0
x_9_13_3_0 0
x_9_13_3_1 0
x_9_13_3_2 0
x_9_14_0_0 0
x_9_14_0_1 0
x_9_14_0_2 0
x_9_14_1_0 0
x_9_14_1_1 0
x_9_14_1_2 0
x_9_14_2_0 0
x_9_14_2_1 0
x_9_14_2_2 0
x_9_14_3_0 0
x_9_14_3_1 0
x_9_14_3_2 0
x_9_15_0_0 0
x_9_15_0_1 0
x_9_15_0_2 0
x_9_15_1_0 0
x_9_15_1_1 0
x_9_15_1_2 0
x_9_15_2_0 0
x_9_15_2_1 0
x_9_15_2_2 0
x_9_15_3_0 0
x_9_15_3_1 0
x_9_15_3_2 0
x_10_11_0_0 4.2223169405275485e-15
x_10_11_0_1 0
x_10_11_0_2 0
x_10_11_1_0 0
x_10_11_1_1 0
x_10_11_1_2 0
x_10_11_2_0 0
x_10_11_2_1 0
x_10_11_2_2 0
x_10_11_3_0 0
x_10_11_3_1 0
x_10_11_3_2 0
x_10_12_0_0 0
x_10_12_0_1 0
x_10_12_0_2 0
x_10_12_1_0 0
x_10_12_1_1 0
x_10_12_1_2 0
x_10_12_2_0 0
x_10_12_2_1 0
x_10_12_2_2 0
x_10_12_3_0 0
x_10_12_3_1 1.1546319456101628e-13
x_10_12_3_2 0
x_10_13_0_0 6.1737420731233783e-13
x_10_13_0_1 -1.8751669153691995e-13
x_10_13_0_2 0
x_10_13_1_0 0
x_10_13_1_1 0
x_10_13_1_2 0
x_10_13_2_0 0
x_10_13_2_1 0
x_10_13_2_2 0
x_10_13_3_0 0
x_10_13_3_1 1.1590728377086634e-13
x_10_13_3_2 0
x_10_14_0_0 -6.1751992408431988e-13
x_10_14_0_1 0
x_10_14_0_2 0
x_10_14_1_0 0
x_10_14_1_1 0
x_10_14_1_2 0
x_10_14_2_0 0
x_10_14_2_1 0
x_10_14_2_2 0
x_10_14_3_0 0
x_10_14_3_1 0
x_10_14_3_2 0
x_10_15_0_0 0
x_10_15_0_1 0
x_10_15_0_2 0
x_10_15_1_0 0
x_10_15_1_1 0
x_10_15_1_2 0
x_10_15_2_0 0
x_10_15_2_1 0
x_10_15_2_2 0
x_10_15_3_0 0
x_10_15_3_1 0
x_10_15_3_2 0
x_11_12_0_0 4.3125225612783424e-15
x_11_12_0_1 0
x_11_12_0_2 4.2327252813834093e-15
x_11_12_1_0 0
x_11_12_1_1 0
x_11_12_1_2 0
x_11_12_2_0 0
x_11_12_2_1 0
x_11_12_2_2 0
x_11_12_3_0 0
x_11_12_3_1 9.9999999999999567e-01
x_11_12_3_2 0
x_11_13_0_0 6.1316229871266614e-13
x_11_13_0_1 0
x_11_13_0_2 0
x_11_13_1_0 0
x_11_13_1_1 0
x_11_13_1_2 0
x_11_13_2_0 0
x_11_13_2_1 -4.40619762898109e-15
x_11_13_2_2 0
x_11_13_3_0 0
x_11_13_3_1 0
x_11_13_3_2 0
x_11_14_0_0 0
x_11_14_0_1 0
x_11_14_0_2 0
x_11_14_1_0 0
x_11_14_1_1 0
x_11_14_1_2 0
x_11_14_2_0 0
x_11_14_2_1 0
x_11_14_2_2 0
x_11_14_3_0 0
x_11_14_3_1 0
x_11_14_3_2 0
x_11_15_0_0 0
x_11_15_0_1 0
x_11_15_0_2 0
x_11_15_1_0 0
x_11_15_1_1 0
x_11_15_1_2 0
x_11_15_2_0 0
x_11_15_2_1 0
x_11_15_2_2 0
x_11_15_3_0 0
x_11_15_3_1 0
x_11_15_3_2 0
x_12_13_0_0 4.2327252813834093e-15
x_12_13_0_1 0
x_12_13_0_2 4.3055836673744352e-15
x_12_13_1_0 0
x_12_13_1_1 0
x_12_13_1_2 0
x_12_13_2_0 0
x_12_13_2_1 0
x_12_13_2_2 0
x_12_13_3_0 0
x_12_13_3_1 1.1590728377086634e-13
x_12_13_3_2 0
x_12_14_0_0 0
x_12_14_0_1 0
x_12_14_0_2 0
x_12_14_1_0 0
x_12_14_1_1 0
x_12_14_1_2 0
x_12_14_2_0 0
x_12_14_2_1 0
x_12_14_2_2 0
x_12_14_3_0 0
x_12_14_3_1 0
x_12_14_3_2 0
x_12_15_0_0 0
x_12_15_0_1 0
x_12_15_0_2 0
x_12_15_1_0 0
x_12_15_1_1 0
x_12_15_1_2 0
x_12_15_2_0 0
x_12_15_2_1 0
x_12_15_2_2 0
x_12_15_3_0 0
x_12_15_3_1 0
x_12_15_3_2 0
x_13_14_0_0 0
x_13_14_0_1 0
x_13_14_0_2 6.1330107659074429e-13
x_13_14_1_0 0
x_13_14_1_1 0
x_13_14_1_2 0
x_13_14_2_0 0
x_13_14_2_1 9.9999999999914846e-01
x_13_14_2_2 0
x_13_14_3_0 0
x_13_14_3_1 0
x_13_14_3_2 0
x_13_15_0_0 0
x_13_15_0_1 0
x_13_15_0_2 4.1737446832001979e-15
x_13_15_1_0 0
x_13_15_1_1 0
x_13_15_1_2 0
x_13_15_2_0 0
x_13_15_2_1 0
x_13_15_2_2 0
x_13_15_3_0 0
x_13_15_3_1 0
x_13_15_3_2 0
x_14_15_0_0 6.1751992408431988e-13
x_14_15_0_1 0
x_14_15_0_2 3.0675809115088271e-13
x_14_15_1_0 0
x_14_15_1_1 0
x_14_15_1_2 0
x_14_15_2_0 0
x_14_15_2_1 9.9999999999999944e-01
x_14_15_2_2 0
x_14_15_3_0 0
x_14_15_3_1 0
x_14_15_3_2 0
